100
    1   281   281
    2   242   242
    3   442   442
    4   442   442
    5   356   356
    6   468   468
    7   425   425
    8   168   168
    9   214   214
   10   377   377
   11   263   263
   12   357   357
   13    75    75
   14   217   217
   15    41    41
   16   419   419
   17   319   319
   18   194   194
   19   312   312
   20   134   134
   21   325   325
   22   487   487
   23   237   237
   24   127   127
   25   310   310
   26   299   299
   27   386   386
   28   430   430
   29   306   306
   30   359   359
   31   346   346
   32   500   500
   33   207   207
   34    30    30
   35   118   118
   36   238   238
   37   179   179
   38   386   386
   39   208   208
   40   169   169
   41    51    51
   42   253   253
   43   453   453
   44    59    59
   45   238   238
   46   140   140
   47   500   500
   48    96    96
   49   182   182
   50    57    57
   51   470   470
   52    70    70
   53   324   324
   54   384   384
   55   157   157
   56   247   247
   57   315   315
   58    86    86
   59   497   497
   60    28    28
   61   419   419
   62   361   361
   63   177   177
   64   456   456
   65   285   285
   66    24    24
   67   335   335
   68   475   475
   69   306   306
   70   339   339
   71    15    15
   72   353   353
   73    98    98
   74   285   285
   75   114   114
   76   483   483
   77   202   202
   78   458   458
   79   180   180
   80   347   347
   81   353   353
   82   368   368
   83    63    63
   84   129   129
   85   448   448
   86    49    49
   87   159   159
   88   303   303
   89   125   125
   90   378   378
   91   156   156
   92   311   311
   93   471   471
   94   336   336
   95   415   415
   96   184   184
   97   481   481
   98   412   412
   99   202   202
  100   437   437
4582
